c This is QMaxSAT 2017 based on 14.07
c This is Glucose 3.0
c This is MiniSat 2.2.0
c WARNING: for repeatability, setting FPU to use double precision
c card = mrwto, comp = 0, pmodel = 0, narr = 18, mct = 127, verb = 0
cr firstCPXsol 0 0 0
c top = 79249421
c |  Number of variables:    41472                                            |
c |  Number of clauses:      5469885                                          |
c |  Weight of hard clauses: 79249421                                         |
c |  Number of soft clauses: 365148                                           |
c |  Number of unit soft clauses: 0                                           |
c |  Maximum Cardinality (by unit): 1689611004   (0           )               |
c last restart ## conflicts  :  5 9367 
o 160192 | cpuTime 0.973669 s
c Sum of weights = 93867278
c A number of soft clauses remained = 20286
c MRWTO encoding for Pseudo-Boolean Constraints
c sizeMax=65536
c No.0 Divisor=11	generated by pow1
c No.1 Divisor=11	generated by pow1
c No.2 Divisor=11	generated by pow1
c No.3 Divisor=12	generated by pow1
c No.4 Divisor=11	generated by pow1
c p0= 11	p1= 11	p2= 11	p3= 12	p4= 11	
c number of digits = 6
c linkingVar[0].size = 11, linkingVar[1].size = 11, linkingVar[2].size = 11, linkingVar[3].size = 12, linkingVar[4].size = 11, linkingVar[5].size = 1, 
c Pseudo-Boolean Constraints: 749833 variables and 7830733 clauses
c Sum of weights = 93867278
c A number of soft clauses remained = 20286
c MRWTO encoding for Pseudo-Boolean Constraints
c sizeMax=65536
c No.0 Divisor=11	generated by pow1
c No.1 Divisor=11	generated by pow1
c No.2 Divisor=11	generated by pow1
c No.3 Divisor=12	generated by pow1
c No.4 Divisor=11	generated by pow1
c p0= 11	p1= 11	p2= 11	p3= 12	p4= 11	
c number of digits = 6
c linkingVar[0].size = 11, linkingVar[1].size = 11, linkingVar[2].size = 11, linkingVar[3].size = 12, linkingVar[4].size = 11, linkingVar[5].size = 1, 
c Pseudo-Boolean Constraints: 749833 variables and 7830733 clauses
c Sum of weights = 93867278
c A number of soft clauses remained = 20286
c MRWTO encoding for Pseudo-Boolean Constraints
c sizeMax=65536
c No.0 Divisor=11	generated by pow1
c No.1 Divisor=11	generated by pow1
c No.2 Divisor=11	generated by pow1
c No.3 Divisor=12	generated by pow1
c No.4 Divisor=11	generated by pow1
c p0= 11	p1= 11	p2= 11	p3= 12	p4= 11	
c number of digits = 6
c linkingVar[0].size = 11, linkingVar[1].size = 11, linkingVar[2].size = 11, linkingVar[3].size = 12, linkingVar[4].size = 11, linkingVar[5].size = 1, 
c Pseudo-Boolean Constraints: 749833 variables and 7830733 clauses
c Sum of weights = 93867278
c A number of soft clauses remained = 20286
c MRWTO encoding for Pseudo-Boolean Constraints
c sizeMax=65536
c No.0 Divisor=11	generated by pow1
c No.1 Divisor=11	generated by pow1
c No.2 Divisor=11	generated by pow1
c No.3 Divisor=12	generated by pow1
c No.4 Divisor=11	generated by pow1
c p0= 11	p1= 11	p2= 11	p3= 12	p4= 11	
c number of digits = 6
c linkingVar[0].size = 11, linkingVar[1].size = 11, linkingVar[2].size = 11, linkingVar[3].size = 12, linkingVar[4].size = 11, linkingVar[5].size = 1, 
c Pseudo-Boolean Constraints: 749833 variables and 7830733 clauses
c Sum of weights = 93867278
c A number of soft clauses remained = 20286
c MRWTO encoding for Pseudo-Boolean Constraints
c sizeMax=65536
c No.0 Divisor=11	generated by pow1
c No.1 Divisor=11	generated by pow1
c No.2 Divisor=11	generated by pow1
c No.3 Divisor=12	generated by pow1
c No.4 Divisor=11	generated by pow1
c p0= 11	p1= 11	p2= 11	p3= 12	p4= 11	
c number of digits = 6
c linkingVar[0].size = 11, linkingVar[1].size = 11, linkingVar[2].size = 11, linkingVar[3].size = 12, linkingVar[4].size = 11, linkingVar[5].size = 1, 
c Pseudo-Boolean Constraints: 749833 variables and 7830733 clauses
c Sum of weights = 93867278
c A number of soft clauses remained = 20286
c MRWTO encoding for Pseudo-Boolean Constraints
c sizeMax=65536
c No.0 Divisor=11	generated by pow1
c No.1 Divisor=11	generated by pow1
c No.2 Divisor=11	generated by pow1
c No.3 Divisor=12	generated by pow1
c No.4 Divisor=11	generated by pow1
c p0= 11	p1= 11	p2= 11	p3= 12	p4= 11	
c number of digits = 6
c linkingVar[0].size = 11, linkingVar[1].size = 11, linkingVar[2].size = 11, linkingVar[3].size = 12, linkingVar[4].size = 11, linkingVar[5].size = 1, 
c Pseudo-Boolean Constraints: 749833 variables and 7830733 clauses
c Sum of weights = 93867278
c A number of soft clauses remained = 20286
c MRWTO encoding for Pseudo-Boolean Constraints
c sizeMax=65536
c No.0 Divisor=11	generated by pow1
c No.1 Divisor=11	generated by pow1
c No.2 Divisor=11	generated by pow1
c No.3 Divisor=12	generated by pow1
c No.4 Divisor=11	generated by pow1
c p0= 11	p1= 11	p2= 11	p3= 12	p4= 11	
c number of digits = 6
c linkingVar[0].size = 11, linkingVar[1].size = 11, linkingVar[2].size = 11, linkingVar[3].size = 12, linkingVar[4].size = 11, linkingVar[5].size = 1, 
c Pseudo-Boolean Constraints: 749833 variables and 7830733 clauses
c Sum of weights = 93867278
c A number of soft clauses remained = 20286
c MRWTO encoding for Pseudo-Boolean Constraints
c sizeMax=65536
c No.0 Divisor=11	generated by pow1
c No.1 Divisor=11	generated by pow1
c No.2 Divisor=11	generated by pow1
c No.3 Divisor=12	generated by pow1
c No.4 Divisor=11	generated by pow1
c p0= 11	p1= 11	p2= 11	p3= 12	p4= 11	
c number of digits = 6
c linkingVar[0].size = 11, linkingVar[1].size = 11, linkingVar[2].size = 11, linkingVar[3].size = 12, linkingVar[4].size = 11, linkingVar[5].size = 1, 
c Pseudo-Boolean Constraints: 749833 variables and 7830733 clauses
c Sum of weights = 93867278
c A number of soft clauses remained = 20286
c MRWTO encoding for Pseudo-Boolean Constraints
c sizeMax=65536
c No.0 Divisor=11	generated by pow1
c No.1 Divisor=11	generated by pow1
c No.2 Divisor=11	generated by pow1
c No.3 Divisor=12	generated by pow1
c No.4 Divisor=11	generated by pow1
c p0= 11	p1= 11	p2= 11	p3= 12	p4= 11	
c number of digits = 6
c linkingVar[0].size = 11, linkingVar[1].size = 11, linkingVar[2].size = 11, linkingVar[3].size = 12, linkingVar[4].size = 11, linkingVar[5].size = 1, 
c Pseudo-Boolean Constraints: 749833 variables and 7830733 clauses
c Sum of weights = 93867278
c A number of soft clauses remained = 20286
c MRWTO encoding for Pseudo-Boolean Constraints
c sizeMax=65536
c No.0 Divisor=11	generated by pow1
c No.1 Divisor=11	generated by pow1
c No.2 Divisor=11	generated by pow1
c No.3 Divisor=12	generated by pow1
c No.4 Divisor=11	generated by pow1
c p0= 11	p1= 11	p2= 11	p3= 12	p4= 11	
c number of digits = 6
c linkingVar[0].size = 11, linkingVar[1].size = 11, linkingVar[2].size = 11, linkingVar[3].size = 12, linkingVar[4].size = 11, linkingVar[5].size = 1, 
c Pseudo-Boolean Constraints: 749833 variables and 7830733 clauses
c Sum of weights = 93867278
c A number of soft clauses remained = 20286
c MRWTO encoding for Pseudo-Boolean Constraints
c sizeMax=65536
c No.0 Divisor=11	generated by pow1
c No.1 Divisor=11	generated by pow1
c No.2 Divisor=11	generated by pow1
c No.3 Divisor=12	generated by pow1
c No.4 Divisor=11	generated by pow1
c p0= 11	p1= 11	p2= 11	p3= 12	p4= 11	
c number of digits = 6
c linkingVar[0].size = 11, linkingVar[1].size = 11, linkingVar[2].size = 11, linkingVar[3].size = 12, linkingVar[4].size = 11, linkingVar[5].size = 1, 
c Pseudo-Boolean Constraints: 749833 variables and 7830733 clauses
c Sum of weights = 93867278
c A number of soft clauses remained = 20286
c MRWTO encoding for Pseudo-Boolean Constraints
c sizeMax=65536
c No.0 Divisor=11	generated by pow1
c No.1 Divisor=11	generated by pow1
c No.2 Divisor=11	generated by pow1
c No.3 Divisor=12	generated by pow1
c No.4 Divisor=11	generated by pow1
c p0= 11	p1= 11	p2= 11	p3= 12	p4= 11	
c number of digits = 6
c linkingVar[0].size = 11, linkingVar[1].size = 11, linkingVar[2].size = 11, linkingVar[3].size = 12, linkingVar[4].size = 11, linkingVar[5].size = 1, 
c Pseudo-Boolean Constraints: 749833 variables and 7830733 clauses
c Sum of weights = 93867278
c A number of soft clauses remained = 20286
c MRWTO encoding for Pseudo-Boolean Constraints
c sizeMax=65536
c No.0 Divisor=11	generated by pow1
c No.1 Divisor=11	generated by pow1
c No.2 Divisor=11	generated by pow1
c No.3 Divisor=12	generated by pow1
c No.4 Divisor=11	generated by pow1
c p0= 11	p1= 11	p2= 11	p3= 12	p4= 11	
c number of digits = 6
c linkingVar[0].size = 11, linkingVar[1].size = 11, linkingVar[2].size = 11, linkingVar[3].size = 12, linkingVar[4].size = 11, linkingVar[5].size = 1, 
c Pseudo-Boolean Constraints: 749833 variables and 7830733 clauses
c Sum of weights = 93867278
c A number of soft clauses remained = 20286
c MRWTO encoding for Pseudo-Boolean Constraints
c sizeMax=65536
c No.0 Divisor=11	generated by pow1
c No.1 Divisor=11	generated by pow1
c No.2 Divisor=11	generated by pow1
c No.3 Divisor=12	generated by pow1
c No.4 Divisor=11	generated by pow1
c p0= 11	p1= 11	p2= 11	p3= 12	p4= 11	
c number of digits = 6
c linkingVar[0].size = 11, linkingVar[1].size = 11, linkingVar[2].size = 11, linkingVar[3].size = 12, linkingVar[4].size = 11, linkingVar[5].size = 1, 
c Pseudo-Boolean Constraints: 749833 variables and 7830733 clauses
c Sum of weights = 93867278
c A number of soft clauses remained = 20286
c MRWTO encoding for Pseudo-Boolean Constraints
c sizeMax=65536
c No.0 Divisor=11	generated by pow1
c No.1 Divisor=11	generated by pow1
c No.2 Divisor=11	generated by pow1
c No.3 Divisor=12	generated by pow1
c No.4 Divisor=11	generated by pow1
c p0= 11	p1= 11	p2= 11	p3= 12	p4= 11	
c number of digits = 6
c linkingVar[0].size = 11, linkingVar[1].size = 11, linkingVar[2].size = 11, linkingVar[3].size = 12, linkingVar[4].size = 11, linkingVar[5].size = 1, 
c Pseudo-Boolean Constraints: 749833 variables and 7830733 clauses
c Sum of weights = 93867278
c A number of soft clauses remained = 20286
c MRWTO encoding for Pseudo-Boolean Constraints
c sizeMax=65536
c No.0 Divisor=11	generated by pow1
c No.1 Divisor=11	generated by pow1
c No.2 Divisor=11	generated by pow1
c No.3 Divisor=12	generated by pow1
c No.4 Divisor=11	generated by pow1
c p0= 11	p1= 11	p2= 11	p3= 12	p4= 11	
c number of digits = 6
c linkingVar[0].size = 11, linkingVar[1].size = 11, linkingVar[2].size = 11, linkingVar[3].size = 12, linkingVar[4].size = 11, linkingVar[5].size = 1, 
c Pseudo-Boolean Constraints: 749833 variables and 7830733 clauses
c Sum of weights = 93867278
c A number of soft clauses remained = 20286
c MRWTO encoding for Pseudo-Boolean Constraints
c sizeMax=65536
c No.0 Divisor=11	generated by pow1
c No.1 Divisor=11	generated by pow1
c No.2 Divisor=11	generated by pow1
c No.3 Divisor=12	generated by pow1
c No.4 Divisor=11	generated by pow1
c p0= 11	p1= 11	p2= 11	p3= 12	p4= 11	
c number of digits = 6
c linkingVar[0].size = 11, linkingVar[1].size = 11, linkingVar[2].size = 11, linkingVar[3].size = 12, linkingVar[4].size = 11, linkingVar[5].size = 1, 
c Pseudo-Boolean Constraints: 749833 variables and 7830733 clauses
c Sum of weights = 93867278
c A number of soft clauses remained = 20286
c MRWTO encoding for Pseudo-Boolean Constraints
c sizeMax=65536
c No.0 Divisor=11	generated by pow1
c No.1 Divisor=11	generated by pow1
c No.2 Divisor=11	generated by pow1
c No.3 Divisor=12	generated by pow1
c No.4 Divisor=11	generated by pow1
c p0= 11	p1= 11	p2= 11	p3= 12	p4= 11	
c number of digits = 6
c linkingVar[0].size = 11, linkingVar[1].size = 11, linkingVar[2].size = 11, linkingVar[3].size = 12, linkingVar[4].size = 11, linkingVar[5].size = 1, 
c Pseudo-Boolean Constraints: 749833 variables and 7830733 clauses
c last restart ## conflicts  :  951 116174 
o 109863 | cpuTime 242.499 s
c last restart ## conflicts  :  1451 275775 
o 96817 | cpuTime 1396.36 s
c last restart ## conflicts  :  1259 361157 
o 93179 | cpuTime 2141.33 s
c last restart ## conflicts  :  760 176693 
o 86493 | cpuTime 2471.79 s
c last restart ## conflicts  :  1211 414805 
o 75242 | cpuTime 3175.55 s
s UNKNOWN
c Search is stopped by a limit (maybe time-limit)
cr positiVarArr: [ | 116(1->99) | 287(1->126) | 384(1->79) | 462(1->13) | 650(1->57) | 807(1->70) | 908(1->27) | 1039(1->14) | 1282(1->113) | 1353(1->40) | 1564(1->107) | 1623(1->22) | 1857(1->112) | 1908(1->19) | 2118(1->85) | 2273(1->96) | 2415(1->94) | 2539(1->74) | 2600(2->1) | 2788(3->35) | 2925(4->28) | 3080(5->39) | 3182(6->1) | 3332(7->3) | 3534(8->61) | 3632(9->15) | 3781(10->20) | 3923(11->18) | 4038(12->1) | 4313(13->120) | 4361(14->24) | 4504(15->23) | 4747(16->122) | 4875(17->106) | 4976(18->63) | 5134(19->77) | 5292(20->91) | 5381(21->36) | 5484(22->1) | 5697(23->64) | 5898(24->121) | 5925(25->4) | 6058(26->1) | 6211(27->2) | 6442(28->89) | 6597(29->100) | 6697(30->56) | 6769(31->1) | 6962(32->33) | 7060(33->1) | 7262(34->45) | 7403(35->42) | 7543(36->38) | 7639(37->1) | 7824(38->31) | 7989(39->52) | 8129(40->48) | 8275(41->50) | 8453(42->84) | 8554(43->41) | 8784(44->127) | 8891(45->90) | 9010(46->65) | 9190(47->101) | 9282(48->49) | 9409(49->32) | 9636(50->115) | 9760(51->95) | 9825(52->16) | 10070(53->117) | 10202(54->105) | 10251(55->10) | 10377(56->1) | 10515(57->1) | 10669(58->1) | 10884(59->67) | 10982(60->21) | 11104(61->1) | 11307(62->58) | 11476(63->83) | 11522(64->1) | 11778(65->97) | 11880(66->55) | 12040(67->71) | 12179(68->66) | 12367(69->110) | 12469(70->68) | 12618(71->73) | 12791(72->102) | 12870(73->37) | 13075(74->98) | 13155(75->34) | 13340(76->75) | 13456(77->47) | 13570(78->17) | 13722(79->25) | 13847(80->6) | 14065(81->80) | 14210(82->81) | 14349(83->76) | 14499(84->82) | 14684(85->123) | 14824(86->119) | 14958(87->109) | 15079(88->86) | 15253(89->116) | 15341(90->60) | 15487(91->62) | 15628(92->59) | 15756(93->43) | 15926(94->69) | 16105(95->104) | 16263(96->118) | 16315(97->26) | 16463(98->30) | 16669(99->92) | 16722(100->1) | 16873(101->8) | 17102(102->93) | 17264(103->111) | 17375(104->78) | 17439(105->1) | 17699(106->114) | 17832(107->103) | 17917(108->44) | 18142(109->125) | 18269(110->108) | 18393(111->88) | 18573(112->124) | 18604(113->11) | 18725(114->1) | 18875(115->1) | 19034(116->9) | 19220(117->51) | 19366(118->53) | 19544(119->87) | 19655(120->54) | 19791(121->46) | 19901(122->12) | 20105(123->72) | 20177(124->1) | 20328(125->7) | 20494(126->29) | 20614(127->5) | ]
cr the 1-th chain: [ 1->99->92->59->67->71->73->37->1 ] (#non-depot=7) {#cumul.=8}
cr the 2-th chain: [ 1->126->29->100->1 ] (#non-depot=3) {#cumul.=11}
cr the 3-th chain: [ 1->79->25->4->28->89->116->9->15->23->64->1 ] (#non-depot=10) {#cumul.=21}
cr the 4-th chain: [ 1->13->120->54->105->1 ] (#non-depot=4) {#cumul.=25}
cr the 5-th chain: [ 1->57->1 ] (#non-depot=1) {#cumul.=26}
cr the 6-th chain: [ 1->70->68->66->55->10->20->91->62->58->1 ] (#non-depot=9) {#cumul.=35}
cr the 7-th chain: [ 1->27->2->1 ] (#non-depot=2) {#cumul.=37}
cr the 8-th chain: [ 1->14->24->121->46->65->97->26->1 ] (#non-depot=7) {#cumul.=44}
cr the 9-th chain: [ 1->113->11->18->63->83->76->75->34->45->90->60->21->36->38->31->1 ] (#non-depot=15) {#cumul.=59}
cr the 10-th chain: [ 1->40->48->49->32->33->1 ] (#non-depot=5) {#cumul.=64}
cr the 11-th chain: [ 1->107->103->111->88->86->119->87->109->125->7->3->35->42->84->82->81->80->6->1 ] (#non-depot=18) {#cumul.=82}
cr the 12-th chain: [ 1->22->1 ] (#non-depot=1) {#cumul.=83}
cr the 13-th chain: [ 1->112->124->1 ] (#non-depot=2) {#cumul.=85}
cr the 14-th chain: [ 1->19->77->47->101->8->61->1 ] (#non-depot=6) {#cumul.=91}
cr the 15-th chain: [ 1->85->123->72->102->93->43->41->50->115->1 ] (#non-depot=9) {#cumul.=100}
cr the 16-th chain: [ 1->96->118->53->117->51->95->104->78->17->106->114->1 ] (#non-depot=11) {#cumul.=111}
cr the 17-th chain: [ 1->94->69->110->108->44->127->5->39->52->16->122->12->1 ] (#non-depot=12) {#cumul.=123}
cr the 18-th chain: [ 1->74->98->30->56->1 ] (#non-depot=4) {#cumul.=127}
c Latest Answer = 0 by 6 loops
c restarts              : 1921
c conflicts             : 320330         (89 /sec)
c decisions             : 134964465      (0.00 % random) (37498 /sec)
c propagations          : 25753829385    (7155315 /sec)
c conflict literals     : 26397209       (12.48 % deleted)
c Memory used           : 12138.00 MB
c CPU time              : 3599.26 s
